NAME : A-n33-k5-20
TYPE : VRP-D
DIMENSION : 20
CAPACITY : 100
NODE_COORD_SECTION 
 1 42 68
 2 77 97
 3 28 64
 4 77 39
 5 32 33
 6 32 8
 7 42 92
 8 8 3
 9 7 14
 10 82 17
 11 48 13
 12 53 82
 13 39 27
 14 7 24
 15 67 98
 16 54 52
 17 72 43
 18 73 3
 19 59 77
 20 58 97
DEMAND_SECTION 
1 0 
2 5 
3 23 
4 14 
5 13 
6 8 
7 18 
8 19 
9 10 
10 18 
11 20 
12 5 
13 9 
14 23 
15 9 
16 18 
17 10 
18 24 
19 13 
20 14 
DEPOT_SECTION 
 1  
 -1  
EOF 
